! Synthetic reciprocal differential channel for software regression only
! Port order: TX+, TX-, RX+, RX-. Reference: 50 ohm single-ended.
# Hz S RI R 50
1e6  0 0  0 0  .99 0  0 0   0 0  0 0  0 0  .99 0   .99 0  0 0  0 0  0 0   0 0  .99 0  0 0  0 0
1e9  0 0  0 0  .90 0  0 0   0 0  0 0  0 0  .90 0   .90 0  0 0  0 0  0 0   0 0  .90 0  0 0  0 0
2.5e9  0 0  0 0  .70 0  0 0   0 0  0 0  0 0  .70 0   .70 0  0 0  0 0  0 0   0 0  .70 0  0 0  0 0
5e9  0 0  0 0  .45 0  0 0   0 0  0 0  0 0  .45 0   .45 0  0 0  0 0  0 0   0 0  .45 0  0 0  0 0
10e9  0 0  0 0  .20 0  0 0   0 0  0 0  0 0  .20 0   .20 0  0 0  0 0  0 0   0 0  .20 0  0 0  0 0
20e9  0 0  0 0  .05 0  0 0   0 0  0 0  0 0  .05 0   .05 0  0 0  0 0  0 0   0 0  .05 0  0 0  0 0
